(set-info :origin "SVCOMP13 benchmarks generated by Arie Gurfinkel")
(set-info :status unsat)
(set-logic HORN)
(declare-fun cp-rel-__UFO__0
             (Real
              Real
              Real
              Real
              Real
              Real
              Real
              Real
              Real
              Real
              Real
              Real
              Real
              Real
              Real
              Bool
              Bool
              Real
              Real
              Real
              Real
              Bool
              Real
              Real
              Real
              Bool
              Real
              Bool
              Real
              Real
              Real
              Real
              Real)
             Bool)
(declare-fun cp-rel-entry () Bool)
(declare-fun cp-rel-bb.i (Real Real Real Real Real Real Real Real) Bool)
(declare-fun cp-rel-bb.i46.i
             (Real
              Real
              Real
              Real
              Real
              Real
              Real
              Real
              Real
              Real
              Real
              Real
              Real
              Real
              Real
              Bool
              Bool
              Real
              Bool
              Real
              Real
              Real)
             Bool)
(declare-fun cp-rel-UnifiedReturnBlock () Bool)
(declare-fun cp-rel-bb.i46.i.outer1
             (Real
              Real
              Real
              Real
              Real
              Real
              Real
              Real
              Real
              Real
              Real
              Bool
              Bool
              Real
              Real
              Real
              Real)
             Bool)
(declare-fun cp-rel-bb.i46.i.outer
             (Real Real Real Real Real Real Real Real Real)
             Bool)
(assert |cp-rel-entry|)
(assert (forall ((?A Real) (?B Real) (?C Real) (?D Real) (?E Real) (?F Real) (?G Real) (?H Real) (?I Bool) )(let (($x278027 (= ?I true)))
(let (($x241776 (<= ?C 0.0)))
(let (($x299214 (>= ?C 0.0)))
(let (($x238565 (and |cp-rel-entry| (<= ?H 0.0) (>= ?G 0.0) (<= ?G 0.0) (>= ?F 0.0) (<= ?F 0.0) (>= ?E 0.0) (<= ?E 0.0) (>= ?D 0.0) (<= ?D 0.0) $x299214 $x241776 (>= ?B 0.0) (<= ?B 0.0) (>= ?A 0.0) (<= ?A 0.0) $x278027 (>= ?H 0.0))))
(=> $x238565 (|cp-rel-bb.i| ?A ?B ?C ?D ?E ?F ?G ?H)))))))
)
(assert (forall ((?A Real) (?B Real) (?C Real) (?D Real) (?E Real) (?F Real) (?G Real) (?H Real) (?I Real) (?J Real) (?K Real) (?L Real) (?M Real) (?N Real) (?O Real) (?P Real) (?Q Real) (?R Real) (?S Real) (?T Real) (?U Real) (?V Real) (?W Real) (?X Bool) (?Y Bool) (?Z Real) (?A1 Bool) (?B1 Real) (?C1 Real) (?D1 Real) (?E1 Bool) (?F1 Bool) (?G1 Bool) (?H1 Bool) (?I1 Bool) (?J1 Bool) (?K1 Bool) (?L1 Bool) (?M1 Bool) (?N1 Bool) (?O1 Bool) (?P1 Bool) (?Q1 Bool) (?R1 Bool) (?S1 Real) (?T1 Real) (?U1 Real) (?V1 Real) (?W1 Real) (?X1 Real) (?Y1 Bool) (?Z1 Bool) (?A2 Real) (?B2 Bool) (?C2 Bool) (?D2 Bool) (?E2 Bool) (?F2 Bool) (?G2 Bool) (?H2 Bool) (?I2 Bool) (?J2 Bool) (?K2 Bool) )(let (($x321727 (not ?K1)))
(let (($x566393 (or $x321727 ?L1)))
(let (($x36108 (not ?N1)))
(let (($x604581 (or $x36108 ?O1)))
(let (($x416555 (>= ?V1 ?W1)))
(let (($x579652 (<= ?V1 ?W1)))
(let (($x888060 (and ?I1 ?Z1 ?M1 (<= ?S1 ?A2) (>= ?S1 ?A2) (<= ?U1 ?M) (>= ?U1 ?M) $x579652 $x416555 (<= ?X1 ?P) (>= ?X1 ?P))))
(let (($x382833 (>= ?X1 2.0)))
(let (($x855430 (<= ?X1 2.0)))
(let (($x596767 (>= ?U1 2.0)))
(let (($x411240 (<= ?U1 2.0)))
(let (($x308124 (>= ?S1 ?T1)))
(let (($x51895 (<= ?S1 ?T1)))
(let (($x58477 (and ?K1 ?Y1 ?P1 $x51895 $x308124 $x411240 $x596767 (<= ?V1 0.0) (>= ?V1 0.0) $x855430 $x382833)))
(let (($x378068 (not ?Q1)))
(let (($x858634 (or $x378068 (and ?N1 ?R1 $x51895 $x308124 $x411240 $x596767 $x579652 $x416555 $x855430 $x382833) $x58477 $x888060)))
(let (($x287277 (or $x378068 (and ?R1 (not ?Y1) (not ?Z1)) (and ?Y1 (not ?R1) (not ?Z1)) (and ?Z1 (not ?R1) (not ?Y1)))))
(let (($x596624 (= ?B2 true)))
(let (($x304528 (|cp-rel-bb.i46.i| ?I ?J ?K ?L ?M ?N ?O ?P ?Q ?R ?S ?T ?U ?V ?W ?X ?Y ?Z ?A1 ?B1 ?C1 ?D1)))
(let (($x875624 (and $x304528 (= ?K2 (= ?V1 0.0)) (= ?J2 (= ?S1 0.0)) (= ?T1 (ite ?C2 0.0 ?A2)) (= ?M1 (or ?I2 ?H2)) (= ?I2 (= ?W1 0.0)) (= ?H2 (= ?A2 0.0)) (= ?W1 (ite ?G2 0.0 ?Z)) (= ?G2 (and ?P1 ?F2)) (= ?F2 (= ?P 1.0)) (= ?P1 (= ?U 2.0)) (= ?A2 (ite ?E2 0.0 ?D1)) (= ?E2 (and ?C2 ?D2)) (= ?D2 (= ?M 1.0)) (= ?C2 (= ?B1 1.0)) (= ?H1 (= ?D1 0.0)) (>= ?H ?X1) (<= ?H ?X1) (>= ?G ?V1) (<= ?G ?V1) (>= ?F ?U) (<= ?F ?U) (>= ?E ?U1) (<= ?E ?U1) (>= ?D ?W) (<= ?D ?W) (>= ?C ?S1) (<= ?C ?S1) (>= ?B ?C1) (<= ?B ?C1) (>= ?A ?B1) (<= ?A ?B1) $x596624 (= ?Q1 true) $x287277 $x858634 $x604581 (or $x36108 (and ?K1 ?O1 (not ?P1))) $x566393 (or $x321727 (and ?I1 ?L1 (not ?M1))) (or (not ?I1) ?J1) (or (not ?I1) (and ?E1 ?J1 (not ?A1))) (or (not ?E1) ?G1) (or (not ?E1) (and ?F1 ?G1 (not ?H1))) (= ?B2 (or ?K2 ?J2)))))
(=> $x875624 (|cp-rel-bb.i| ?A ?B ?C ?D ?E ?F ?G ?H)))))))))))))))))))))))
)
(assert (forall ((?A Real) (?B Real) (?C Real) (?D Real) (?E Real) (?F Real) (?G Real) (?H Real) (?I Real) (?J Real) (?K Real) (?L Real) (?M Real) (?N Real) (?O Bool) )(let (($x278027 (= ?O true)))
(let (($x241776 (<= ?I 0.0)))
(let (($x299214 (>= ?I 0.0)))
(let (($x509121 (and (|cp-rel-bb.i| ?A ?B ?C ?D ?E ?F ?G ?H) (<= ?N ?G) (>= ?M ?F) (<= ?M ?F) (>= ?L ?C) (<= ?L ?C) (>= ?K ?B) (<= ?K ?B) (>= ?J ?A) (<= ?J ?A) $x299214 $x241776 $x278027 (>= ?N ?G))))
(=> $x509121 (|cp-rel-bb.i46.i.outer| ?D ?E ?H ?I ?J ?K ?L ?M ?N)))))))
)
(assert (forall ((?A Real) (?B Real) (?C Real) (?D Real) (?E Real) (?F Real) (?G Real) (?H Real) (?I Real) (?J Real) (?K Real) (?L Real) (?M Real) (?N Real) (?O Real) (?P Bool) (?Q Bool) (?R Real) (?S Bool) (?T Real) (?U Real) (?V Real) (?W Bool) (?X Bool) (?Y Bool) (?Z Bool) (?A1 Real) (?B1 Real) (?C1 Real) (?D1 Real) (?E1 Real) (?F1 Real) (?G1 Bool) (?H1 Bool) (?I1 Bool) (?J1 Bool) (?K1 Bool) (?L1 Bool) (?M1 Bool) (?N1 Bool) (?O1 Bool) (?P1 Bool) (?Q1 Real) (?R1 Real) (?S1 Real) (?T1 Real) (?U1 Bool) (?V1 Real) (?W1 Bool) (?X1 Bool) (?Y1 Bool) (?Z1 Bool) (?A2 Bool) (?B2 Bool) (?C2 Bool) (?D2 Bool) (?E2 Bool) (?F2 Bool) (?G2 Bool) (?H2 Bool) (?I2 Bool) (?J2 Bool) (?K2 Bool) (?L2 Bool) (?M2 Bool) (?N2 Bool) (?O2 Bool) (?P2 Bool) (?Q2 Real) (?R2 Real) (?S2 Real) (?T2 Bool) (?U2 Real) (?V2 Bool) (?W2 Real) (?X2 Bool) (?Y2 Real) (?Z2 Bool) (?A3 Bool) )(let (($x570192 (and ?W ?W1 ?S (<= ?Q1 ?T) (>= ?Q1 ?T) (<= ?R1 ?U) (>= ?R1 ?U) (<= ?T1 ?V) (>= ?T1 ?V))))
(let (($x18499 (and ?G1 ?U1 ?K1 (<= ?Q1 ?T) (>= ?Q1 ?T) (<= ?R1 ?U) (>= ?R1 ?U) (<= ?T1 ?V1) (>= ?T1 ?V1))))
(let (($x527841 (and ?L1 ?P1 (<= ?Q1 1.0) (>= ?Q1 1.0) (<= ?R1 ?S1) (>= ?R1 ?S1) (<= ?T1 2.0) (>= ?T1 2.0))))
(let (($x865598 (not ?O1)))
(let (($x843313 (or $x865598 (and ?P1 (not ?U1) (not ?W1)) (and ?U1 (not ?P1) (not ?W1)) (and ?W1 (not ?P1) (not ?U1)))))
(let (($x337709 (not ?X1)))
(let (($x421406 (or $x337709 ?Y1)))
(let (($x123404 (not ?C2)))
(let (($x927511 (or $x123404 ?D2)))
(let (($x39015 (not ?K2)))
(let (($x276657 (or $x39015 ?L2)))
(let (($x227626 (and ?E2 ?T2 ?I2 (<= ?Q2 ?R1) (>= ?Q2 ?R1) (<= ?S2 1.0) (>= ?S2 1.0))))
(let (($x148843 (and ?K2 ?O2 ?P2 (<= ?Q2 ?R2) (>= ?Q2 ?R2) (<= ?S2 2.0) (>= ?S2 2.0))))
(let (($x630723 (not ?N2)))
(let (($x612021 (= ?V2 (= ?W2 0.0))))
(let (($x49994 (|cp-rel-bb.i46.i| ?A ?B ?C ?D ?E ?F ?G ?H ?I ?J ?K ?L ?M ?N ?O ?P ?Q ?R ?S ?T ?U ?V)))
(let (($x322063 (and $x49994 (= ?P2 (or ?A3 ?Z2)) (= ?A3 (= ?R2 1.0)) (= ?Z2 (= ?R1 1.0)) (= ?M2 (not (<= 0.0 ?R2))) (= ?R2 (+ (~ 1.0) ?R1)) (= ?I2 (= ?R1 0.0)) (= ?B2 (= ?Y2 0.0)) (= ?S1 (+ 1.0 ?U)) (= ?N1 (not (<= ?U 1.0))) (= ?V1 (ite ?V2 ?V 2.0)) (= ?K1 (or ?V2 ?X2)) (= ?X2 (not ?P)) $x612021 (= ?Z (= ?V 0.0)) (>= ?F1 2.0) (<= ?F1 2.0) (>= ?E1 ?S2) (<= ?E1 ?S2) (>= ?D1 ?T1) (<= ?D1 ?T1) (>= ?C1 ?Q2) (<= ?C1 ?Q2) (>= ?B1 ?Q1) (<= ?B1 ?Q1) (>= ?A1 ?U2) (<= ?A1 ?U2) (= ?N2 true) (or $x630723 (and ?O2 (not ?T2)) (and ?T2 (not ?O2))) (or $x630723 $x148843 $x227626) $x276657 (or $x39015 (and ?G2 ?L2 (not ?M2))) (or (not ?G2) (and ?H2 (not ?J2)) (and ?J2 (not ?H2))) (or (not ?G2) (and ?E2 ?H2 (not ?I2)) (and ?Z1 ?J2 ?Q)) (or (not ?E2) ?F2) (or (not ?E2) (and ?C2 ?F2 ?P)) $x927511 (or $x123404 (and ?Z1 ?D2 (not ?Q))) (or (not ?Z1) ?A2) (or (not ?Z1) (and ?X1 ?A2 (not ?B2))) $x421406 (or $x337709 (and ?O1 ?Y1 ?S)) $x843313 (or $x865598 $x527841 $x18499 $x570192) (or (not ?L1) ?M1) (or (not ?L1) (and ?I1 ?M1 (not ?N1))) (or (not ?I1) ?J1) (or (not ?I1) (and ?G1 ?J1 (not ?K1))) (or (not ?W) ?Y) (or (not ?W) (and ?X ?Y (not ?Z))) (or (not ?G1) ?H1) (or (not ?G1) (and ?X ?H1 ?Z)) (= ?U2 (+ 1.0 ?I)))))
(=> $x322063 (|cp-rel-bb.i46.i.outer| ?D ?E ?H ?A1 ?B1 ?C1 ?D1 ?E1 ?F1))))))))))))))))))))
)
(assert (forall ((?A Real) (?B Real) (?C Real) (?D Real) (?E Real) (?F Real) (?G Real) (?H Real) (?I Real) (?J Bool) (?K Bool) (?L Real) (?M Real) (?N Real) (?O Real) (?P Real) (?Q Real) (?R Real) (?S Real) (?T Real) (?U Real) (?V Bool) )(let (($x30650 (|cp-rel-bb.i46.i.outer1| ?A ?B ?C ?D ?E ?F ?G ?H ?L ?P ?I ?J ?K ?R ?S ?T ?U)))
(let (($x278027 (= ?V true)))
(let (($x871625 (and (|cp-rel-bb.i46.i.outer| ?D ?E ?H ?L ?M ?N ?O ?P ?Q) (= ?J (not (<= 2.0 ?I))) (= ?I (+ ?L ?D)) (>= ?U ?Q) (<= ?U ?Q) (>= ?T ?O) (<= ?T ?O) (>= ?S ?N) (<= ?S ?N) (>= ?R ?M) (<= ?R ?M) $x278027 (= ?K (= ?P 1.0)))))
(=> $x871625 $x30650)))))
)
(assert (forall ((?A Real) (?B Real) (?C Real) (?D Real) (?E Real) (?F Real) (?G Real) (?H Real) (?I Real) (?J Real) (?K Real) (?L Real) (?M Real) (?N Real) (?O Real) (?P Bool) (?Q Bool) (?R Real) (?S Bool) (?T Real) (?U Real) (?V Real) (?W Bool) (?X Bool) (?Y Bool) (?Z Bool) (?A1 Bool) (?B1 Bool) (?C1 Bool) (?D1 Bool) (?E1 Bool) (?F1 Bool) (?G1 Bool) (?H1 Bool) (?I1 Bool) (?J1 Bool) (?K1 Real) (?L1 Real) (?M1 Real) (?N1 Real) (?O1 Bool) (?P1 Real) (?Q1 Bool) (?R1 Bool) (?S1 Bool) (?T1 Bool) (?U1 Bool) (?V1 Bool) (?W1 Bool) (?X1 Bool) (?Y1 Bool) (?Z1 Real) (?A2 Bool) (?B2 Real) (?C2 Real) (?D2 Real) (?E2 Real) (?F2 Real) )(let (($x286622 (|cp-rel-bb.i46.i.outer1| ?A ?B ?C ?D ?E ?F ?G ?H ?I ?M ?O ?P ?Q ?C2 ?D2 ?E2 ?F2)))
(let (($x541346 (not ?A1)))
(let (($x544802 (or $x541346 ?B1)))
(let (($x416920 (not ?W)))
(let (($x88826 (or $x416920 (and ?X ?Y (not ?Z)))))
(let (($x21406 (or $x416920 ?Y)))
(let (($x337709 (not ?C1)))
(let (($x95047 (or $x337709 (and ?A1 ?D1 (not ?E1)))))
(let (($x421406 (or $x337709 ?D1)))
(let (($x321727 (not ?F1)))
(let (($x150325 (or $x321727 (and ?C1 ?G1 (not ?H1)))))
(let (($x566393 (or $x321727 ?G1)))
(let (($x33729 (and ?W ?Q1 ?S (<= ?K1 ?T) (>= ?K1 ?T) (<= ?L1 ?U) (>= ?L1 ?U) (<= ?N1 ?V) (>= ?N1 ?V))))
(let (($x826565 (and ?A1 ?O1 ?E1 (<= ?K1 ?T) (>= ?K1 ?T) (<= ?L1 ?U) (>= ?L1 ?U) (<= ?N1 ?P1) (>= ?N1 ?P1))))
(let (($x150457 (and ?F1 ?J1 (<= ?K1 1.0) (>= ?K1 1.0) (<= ?L1 ?M1) (>= ?L1 ?M1) (<= ?N1 2.0) (>= ?N1 2.0))))
(let (($x36108 (not ?I1)))
(let (($x5831 (or $x36108 (and ?J1 (not ?O1) (not ?Q1)) (and ?O1 (not ?J1) (not ?Q1)) (and ?Q1 (not ?J1) (not ?O1)))))
(let (($x871958 (not ?W1)))
(let (($x359842 (or $x871958 ?X1)))
(let (($x596624 (= ?W1 true)))
(let (($x367019 (= ?Z (= ?V 0.0))))
(let (($x850838 (|cp-rel-bb.i46.i| ?A ?B ?C ?D ?E ?F ?G ?H ?I ?J ?K ?L ?M ?N ?O ?P ?Q ?R ?S ?T ?U ?V)))
(let (($x605907 (and $x850838 (= ?M1 (+ 1.0 ?U)) (= ?H1 (not (<= ?U 1.0))) (= ?P1 (ite ?Y1 ?V 2.0)) (= ?E1 (or ?Y1 ?A2)) (= ?A2 (not ?P)) (= ?Y1 (= ?Z1 0.0)) $x367019 (>= ?F2 2.0) (<= ?F2 2.0) (>= ?E2 ?N1) (<= ?E2 ?N1) (>= ?D2 ?L1) (<= ?D2 ?L1) (>= ?C2 ?K1) (<= ?C2 ?K1) (not (= ?P true)) $x596624 $x359842 (or $x871958 (and ?T1 ?X1 (not ?Q))) (or (not ?T1) ?U1) (or (not ?T1) (and ?R1 ?U1 (not ?V1))) (or (not ?R1) ?S1) (or (not ?R1) (and ?I1 ?S1 ?S)) $x5831 (or $x36108 $x150457 $x826565 $x33729) $x566393 $x150325 $x421406 $x95047 $x21406 $x88826 $x544802 (or $x541346 (and ?X ?B1 ?Z)) (= ?V1 (= ?B2 0.0)))))
(=> $x605907 $x286622)))))))))))))))))))))))))
)
(assert (forall ((?A Real) (?B Real) (?C Real) (?D Real) (?E Real) (?F Real) (?G Real) (?H Real) (?I Real) (?J Real) (?K Real) (?L Real) (?M Real) (?N Real) (?O Real) (?P Bool) (?Q Bool) (?R Bool) (?S Real) (?T Real) (?U Real) (?V Real) (?W Real) (?X Real) (?Y Real) (?Z Bool) )(let (($x876234 (|cp-rel-bb.i46.i| ?A ?B ?C ?D ?E ?F ?G ?H ?I ?J ?K ?L ?M ?N ?O ?P ?Q ?Y ?R ?S ?T ?U)))
(let (($x278027 (= ?Z true)))
(let (($x50403 (|cp-rel-bb.i46.i.outer1| ?A ?B ?C ?D ?E ?F ?G ?H ?I ?M ?O ?P ?Q ?V ?W ?X ?Y)))
(let (($x58858 (and $x50403 (>= ?U ?X) (<= ?U ?X) (>= ?T ?W) (<= ?T ?W) (>= ?S ?V) (<= ?S ?V) $x278027 (= ?R (= ?Y 0.0)))))
(=> $x58858 $x876234))))))
)
(assert (forall ((?A Real) (?B Real) (?C Real) (?D Real) (?E Real) (?F Real) (?G Real) (?H Real) (?I Real) (?J Real) (?K Real) (?L Real) (?M Real) (?N Real) (?O Real) (?P Bool) (?Q Bool) (?R Real) (?S Bool) (?T Real) (?U Real) (?V Real) (?W Bool) (?X Bool) (?Y Bool) (?Z Bool) (?A1 Bool) (?B1 Bool) (?C1 Bool) (?D1 Bool) (?E1 Bool) (?F1 Bool) (?G1 Bool) (?H1 Bool) (?I1 Bool) (?J1 Bool) (?K1 Real) (?L1 Real) (?M1 Real) (?N1 Real) (?O1 Bool) (?P1 Real) (?Q1 Bool) (?R1 Bool) (?S1 Bool) (?T1 Bool) (?U1 Bool) (?V1 Real) (?W1 Bool) (?X1 Real) (?Y1 Real) (?Z1 Real) (?A2 Real) )(let (($x670665 (|cp-rel-bb.i46.i| ?A ?B ?C ?D ?E ?F ?G ?H ?I ?J ?K ?L ?M ?N ?O ?P ?Q ?R ?S ?Y1 ?Z1 ?A2)))
(let (($x321727 (not ?A1)))
(let (($x566393 (or $x321727 ?B1)))
(let (($x123404 (not ?C1)))
(let (($x927511 (or $x123404 ?D1)))
(let (($x300454 (not ?F1)))
(let (($x365372 (or $x300454 ?G1)))
(let (($x1348 (and ?W ?Q1 ?S (<= ?K1 ?T) (>= ?K1 ?T) (<= ?L1 ?U) (>= ?L1 ?U) (<= ?N1 ?V) (>= ?N1 ?V))))
(let (($x306379 (and ?A1 ?O1 ?E1 (<= ?K1 ?T) (>= ?K1 ?T) (<= ?L1 ?U) (>= ?L1 ?U) (<= ?N1 ?P1) (>= ?N1 ?P1))))
(let (($x382833 (>= ?N1 2.0)))
(let (($x855430 (<= ?N1 2.0)))
(let (($x416555 (>= ?L1 ?M1)))
(let (($x579652 (<= ?L1 ?M1)))
(let (($x560646 (and ?F1 ?J1 (<= ?K1 1.0) (>= ?K1 1.0) $x579652 $x416555 $x855430 $x382833)))
(let (($x450163 (not ?I1)))
(let (($x577754 (or $x450163 (and ?J1 (not ?O1) (not ?Q1)) (and ?O1 (not ?J1) (not ?Q1)) (and ?Q1 (not ?J1) (not ?O1)))))
(let (($x871958 (not ?R1)))
(let (($x359842 (or $x871958 ?S1)))
(let (($x164928 (and ?I1 (not ?S) (<= ?Y1 ?K1) (>= ?Y1 ?K1) (<= ?Z1 ?L1) (>= ?Z1 ?L1) (<= ?A2 ?N1) (>= ?A2 ?N1))))
(let (($x805945 (and ?R1 ?T1 (<= ?Y1 ?K1) (>= ?Y1 ?K1) (<= ?Z1 ?L1) (>= ?Z1 ?L1) (<= ?A2 ?N1) (>= ?A2 ?N1))))
(let (($x505129 (|cp-rel-bb.i46.i| ?A ?B ?C ?D ?E ?F ?G ?H ?I ?J ?K ?L ?M ?N ?O ?P ?Q ?R ?S ?T ?U ?V)))
(let (($x109864 (and $x505129 (= ?M1 (+ 1.0 ?U)) (= ?H1 (not (<= ?U 1.0))) (= ?P1 (ite ?U1 ?V 2.0)) (= ?E1 (or ?U1 ?W1)) (= ?W1 (not ?P)) (= ?U1 (= ?V1 0.0)) (= ?Z (= ?V 0.0)) (or $x805945 $x164928) $x359842 (or $x871958 (and ?I1 ?S1 ?S)) $x577754 (or $x450163 $x560646 $x306379 $x1348) $x365372 (or $x300454 (and ?C1 ?G1 (not ?H1))) $x927511 (or $x123404 (and ?A1 ?D1 (not ?E1))) (or (not ?W) ?Y) (or (not ?W) (and ?X ?Y (not ?Z))) $x566393 (or $x321727 (and ?X ?B1 ?Z)) (= ?T1 (= ?X1 0.0)))))
(=> $x109864 $x670665))))))))))))))))))))))))
)
(assert (forall ((?A Real) (?B Real) (?C Real) (?D Real) (?E Real) (?F Real) (?G Real) (?H Real) (?I Real) (?J Real) (?K Real) (?L Real) (?M Real) (?N Real) (?O Real) (?P Bool) (?Q Bool) (?R Real) (?S Bool) (?T Real) (?U Real) (?V Real) (?W Bool) (?X Bool) (?Y Bool) (?Z Bool) (?A1 Bool) (?B1 Bool) (?C1 Bool) (?D1 Bool) (?E1 Bool) (?F1 Bool) (?G1 Bool) (?H1 Bool) (?I1 Bool) (?J1 Bool) (?K1 Real) (?L1 Real) (?M1 Real) (?N1 Real) (?O1 Real) (?P1 Real) (?Q1 Bool) (?R1 Bool) (?S1 Real) (?T1 Bool) (?U1 Bool) (?V1 Bool) (?W1 Bool) (?X1 Bool) (?Y1 Bool) (?Z1 Bool) (?A2 Bool) (?B2 Bool) (?C2 Bool) (?D2 Real) (?E2 Real) (?F2 Real) )(let (($x552567 (|cp-rel-__UFO__0| ?A ?B ?C ?D ?E ?F ?G ?H ?I ?J ?K ?L ?M ?N ?O ?P ?Q ?D2 ?E2 ?F2 ?R ?S ?T ?U ?V ?U1 ?S1 ?H1 ?O1 ?K1 ?M1 ?N1 ?P1)))
(let (($x416920 (not ?W)))
(let (($x88826 (or $x416920 (and ?X ?Y (not ?Z)))))
(let (($x21406 (or $x416920 ?Y)))
(let (($x541346 (not ?A1)))
(let (($x544802 (or $x541346 ?B1)))
(let (($x337709 (not ?C1)))
(let (($x95047 (or $x337709 (and ?A1 ?D1 (not ?E1)))))
(let (($x421406 (or $x337709 ?D1)))
(let (($x321727 (not ?F1)))
(let (($x150325 (or $x321727 (and ?C1 ?G1 (not ?H1)))))
(let (($x566393 (or $x321727 ?G1)))
(let (($x308124 (>= ?N1 ?O1)))
(let (($x51895 (<= ?N1 ?O1)))
(let (($x409339 (and ?A1 ?R1 ?E1 (<= ?K1 ?S1) (>= ?K1 ?S1) (<= ?M1 ?E) (>= ?M1 ?E) $x51895 $x308124 (<= ?P1 ?H) (>= ?P1 ?H))))
(let (($x596767 (>= ?P1 2.0)))
(let (($x411240 (<= ?P1 2.0)))
(let (($x106156 (and ?C1 ?Q1 ?H1 (<= ?K1 ?L1) (>= ?K1 ?L1) (<= ?M1 2.0) (>= ?M1 2.0) (<= ?N1 0.0) (>= ?N1 0.0) $x411240 $x596767)))
(let (($x205984 (and ?F1 ?J1 (<= ?K1 ?L1) (>= ?K1 ?L1) (<= ?M1 2.0) (>= ?M1 2.0) $x51895 $x308124 $x411240 $x596767)))
(let (($x36108 (not ?I1)))
(let (($x281033 (or $x36108 (and ?J1 (not ?Q1) (not ?R1)) (and ?Q1 (not ?J1) (not ?R1)) (and ?R1 (not ?J1) (not ?Q1)))))
(let (($x367019 (= ?Z (= ?V 0.0))))
(let (($x850838 (|cp-rel-bb.i46.i| ?A ?B ?C ?D ?E ?F ?G ?H ?I ?J ?K ?L ?M ?N ?O ?P ?Q ?R ?S ?T ?U ?V)))
(let (($x351936 (and $x850838 (= ?C2 (= ?N1 0.0)) (= ?B2 (= ?K1 0.0)) (= ?L1 (ite ?U1 0.0 ?S1)) (= ?E1 (or ?A2 ?Z1)) (= ?A2 (= ?O1 0.0)) (= ?Z1 (= ?S1 0.0)) (= ?O1 (ite ?Y1 0.0 ?R)) (= ?Y1 (and ?H1 ?X1)) (= ?X1 (= ?H 1.0)) (= ?H1 (= ?M 2.0)) (= ?S1 (ite ?W1 0.0 ?V)) (= ?W1 (and ?U1 ?V1)) (= ?V1 (= ?E 1.0)) (= ?U1 (= ?T 1.0)) $x367019 (not (= ?T1 true)) (= ?I1 true) $x281033 (or $x36108 $x205984 $x106156 $x409339) $x566393 $x150325 $x421406 $x95047 $x544802 (or $x541346 (and ?W ?B1 (not ?S))) $x21406 $x88826 (= ?T1 (or ?C2 ?B2)))))
(=> $x351936 $x552567))))))))))))))))))))))))))
)
(assert (forall ((?A Real) (?B Real) (?C Real) (?D Real) (?E Real) (?F Real) (?G Real) (?H Real) (?I Real) (?J Real) (?K Real) (?L Real) (?M Real) (?N Real) (?O Real) (?P Bool) (?Q Bool) (?R Real) (?S Bool) (?T Bool) (?U Real) (?V Real) (?W Real) (?X Real) (?Y Real) (?Z Real) (?A1 Bool) (?B1 Real) (?C1 Real) (?D1 Real) (?E1 Real) (?F1 Real) (?G1 Real) (?H1 Bool) )(let (($x646480 (|cp-rel-__UFO__0| ?A ?B ?C ?D ?E ?F ?G ?H ?I ?J ?K ?L ?M ?N ?O ?P ?Q ?B1 ?C1 ?D1 ?R ?S ?E1 ?F1 ?G1 ?A1 ?Z ?T ?X ?U ?V ?W ?Y)))
(=> (and $x646480 (= ?H1 true)) $x646480)))
)
(assert (forall ((?A Real) (?B Real) (?C Real) (?D Real) (?E Real) (?F Real) (?G Real) (?H Real) (?I Real) (?J Real) (?K Real) (?L Real) (?M Real) (?N Real) (?O Real) (?P Bool) (?Q Bool) (?R Real) (?S Bool) (?T Real) (?U Real) (?V Real) (?W Bool) (?X Bool) (?Y Bool) (?Z Bool) (?A1 Bool) (?B1 Bool) (?C1 Bool) (?D1 Bool) (?E1 Bool) (?F1 Bool) (?G1 Bool) (?H1 Bool) (?I1 Bool) (?J1 Bool) (?K1 Real) (?L1 Real) (?M1 Real) (?N1 Real) (?O1 Bool) (?P1 Real) (?Q1 Bool) (?R1 Bool) (?S1 Bool) (?T1 Bool) (?U1 Bool) (?V1 Bool) (?W1 Bool) (?X1 Bool) (?Y1 Bool) (?Z1 Bool) (?A2 Bool) (?B2 Bool) (?C2 Bool) (?D2 Bool) (?E2 Bool) (?F2 Bool) (?G2 Bool) (?H2 Bool) (?I2 Real) (?J2 Bool) (?K2 Real) (?L2 Bool) (?M2 Real) (?N2 Bool) (?O2 Bool) )(let (($x159509 (and ?W ?Q1 ?S (<= ?K1 ?T) (>= ?K1 ?T) (<= ?L1 ?U) (>= ?L1 ?U) (<= ?N1 ?V) (>= ?N1 ?V))))
(let (($x163119 (and ?A1 ?O1 ?E1 (<= ?K1 ?T) (>= ?K1 ?T) (<= ?L1 ?U) (>= ?L1 ?U) (<= ?N1 ?P1) (>= ?N1 ?P1))))
(let (($x177569 (and ?F1 ?J1 (<= ?K1 1.0) (>= ?K1 1.0) (<= ?L1 ?M1) (>= ?L1 ?M1) (<= ?N1 2.0) (>= ?N1 2.0))))
(let (($x511929 (not ?I1)))
(let (($x108135 (or $x511929 (and ?J1 (not ?O1) (not ?Q1)) (and ?O1 (not ?J1) (not ?Q1)) (and ?Q1 (not ?J1) (not ?O1)))))
(let (($x36108 (not ?R1)))
(let (($x604581 (or $x36108 ?S1)))
(let (($x300454 (not ?T1)))
(let (($x365372 (or $x300454 ?U1)))
(let (($x39015 (not ?Y1)))
(let (($x276657 (or $x39015 ?Z1)))
(let (($x612021 (= ?J2 (= ?K2 0.0))))
(let (($x123938 (|cp-rel-bb.i46.i| ?A ?B ?C ?D ?E ?F ?G ?H ?I ?J ?K ?L ?M ?N ?O ?P ?Q ?R ?S ?T ?U ?V)))
(let (($x717025 (and $x123938 (= ?O2 (= ?I2 1.0)) (= ?N2 (= ?L1 1.0)) (= ?G2 (not (<= 0.0 ?I2))) (= ?I2 (+ (~ 1.0) ?L1)) (= ?C2 (= ?L1 0.0)) (= ?V1 (= ?M2 0.0)) (= ?M1 (+ 1.0 ?U)) (= ?H1 (not (<= ?U 1.0))) (= ?P1 (ite ?J2 ?V 2.0)) (= ?E1 (or ?J2 ?L2)) (= ?L2 (not ?P)) $x612021 (= ?Z (= ?V 0.0)) (or (and ?E2 (not ?H2)) (and ?A2 ?G2) (and ?C1 ?H1)) (or (not ?E2) ?F2) (or (not ?E2) (and ?A2 ?F2 (not ?G2))) (or (not ?A2) (and ?B2 (not ?D2)) (and ?D2 (not ?B2))) (or (not ?A2) (and ?Y1 ?B2 (not ?C2)) (and ?T1 ?D2 ?Q)) $x276657 (or $x39015 (and ?W1 ?Z1 ?P)) (or (not ?W1) ?X1) (or (not ?W1) (and ?T1 ?X1 (not ?Q))) $x365372 (or $x300454 (and ?R1 ?U1 (not ?V1))) $x604581 (or $x36108 (and ?I1 ?S1 ?S)) $x108135 (or $x511929 $x177569 $x163119 $x159509) (or (not ?F1) ?G1) (or (not ?F1) (and ?C1 ?G1 (not ?H1))) (or (not ?C1) ?D1) (or (not ?C1) (and ?A1 ?D1 (not ?E1))) (or (not ?W) ?Y) (or (not ?W) (and ?X ?Y (not ?Z))) (or (not ?A1) ?B1) (or (not ?A1) (and ?X ?B1 ?Z)) (= ?H2 (or ?O2 ?N2)))))
(=> $x717025 |cp-rel-UnifiedReturnBlock|))))))))))))))))
)
(assert (not cp-rel-UnifiedReturnBlock))
(check-sat)
